
  32    4
  10   10   10   10

   0   0   0   0   0   5 2 4 8 9 13 
   9   1   0   1   1   2 21 3 
   3   1   1   1   0   2 12 5 
   2   0   3   4   7   3 21 12 6 
   5   0   4   4   4   3 31 11 7 
   3   0   2   5   4   5 31 30 29 14 11 
   3   0   5   6   4   2 20 10 
   1   4   0   6   5   2 29 10 
   8   0   6   1   5   2 30 12 
   6   6   3   0   1   3 30 18 14 
  10   0   7   3   5   6 28 27 20 19 18 15 
   5   9   3   0   5   6 28 27 24 18 17 15 
   2   0   7   6   1   6 30 21 20 18 17 15 
  10   3   4   0   4   6 28 27 26 25 23 16 
   2   0   3   7   2   3 26 25 22 
   7   2   5   0   6   2 22 19 
   6   3   4   2   0   2 29 22 
   3   3   0   7   3   1 23 
   8   5   0   3   3   1 24 
   4   0   5   6   2   1 23 
   9   4   0   4   3   1 29 
   8   0   2   3   2   1 32
   8   0   3   2   5   1 32
   1   0   1   6   5   1 32
   6   0   8   4   4   1 32
   9   0   5   3   2   1 32
   2   5   0   5   5   1 32
   5   3   0   1   5   1 32
   8   5   0   6   6   1 32
   2   0   3   4   8   1 32
   4   6   0   4   5   1 32
   0   0   0   0   0   0 
